Optimal - objective value 4.00000000
      0 x_0_1                  1                       1
      1 x_0_2                  1                       1
      2 x_0_3                  1                       1
      5 x_0_6                  1                       1
     45 f_0_1                2.5                       0
     46 f_1_0                1.5                       0
     47 f_0_2                2.5                       0
     48 f_2_0                1.5                       0
     49 f_0_3                2.5                       0
     50 f_3_0                1.5                       0
     55 f_0_6                  1                       0
